p tw 980 14701 7 
1 8 
1 91 
2 9 
2 10 
2 92 
3 7 
3 10 
3 361 
4 8 
4 9 
4 362 
5 7 
5 9 
5 391 
6 8 
6 10 
6 392 
11 17 
11 18 
11 41 
12 19 
12 20 
12 42 
13 17 
13 20 
13 81 
14 18 
14 19 
14 82 
15 17 
15 19 
15 261 
16 18 
16 20 
16 262 
21 27 
21 28 
21 221 
22 29 
22 30 
22 222 
23 27 
23 30 
23 521 
24 28 
24 29 
24 522 
25 27 
25 29 
25 951 
26 28 
26 30 
26 952 
31 37 
31 38 
31 301 
32 39 
32 40 
32 302 
33 37 
33 40 
33 431 
34 38 
34 39 
34 432 
35 37 
35 39 
35 501 
36 38 
36 40 
36 502 
41 47 
41 48 
42 49 
42 50 
43 47 
43 50 
43 181 
44 48 
44 49 
44 182 
45 47 
45 49 
45 491 
46 48 
46 50 
46 492 
51 57 
51 58 
51 71 
52 59 
52 60 
52 72 
53 57 
53 60 
53 411 
54 58 
54 59 
54 412 
55 57 
55 59 
55 433 
56 58 
56 60 
56 434 
61 67 
61 68 
61 263 
62 69 
62 70 
62 264 
63 67 
63 70 
63 591 
64 68 
64 69 
64 592 
65 67 
65 69 
65 731 
66 68 
66 70 
66 732 
71 77 
71 78 
72 79 
72 80 
73 77 
73 80 
73 541 
74 78 
74 79 
74 542 
75 77 
75 79 
75 651 
76 78 
76 80 
76 652 
81 87 
81 88 
82 89 
82 90 
83 87 
83 90 
83 593 
84 88 
84 89 
84 594 
85 87 
85 89 
85 671 
86 88 
86 90 
86 672 
91 97 
91 98 
92 99 
92 100 
93 97 
93 100 
93 631 
94 98 
94 99 
94 632 
95 97 
95 99 
95 641 
96 98 
96 100 
96 642 
101 107 
101 108 
101 441 
102 109 
102 110 
102 442 
103 107 
103 110 
103 511 
104 108 
104 109 
104 512 
105 107 
105 109 
105 911 
106 108 
106 110 
106 912 
111 117 
111 118 
111 481 
112 119 
112 120 
112 482 
113 117 
113 120 
113 781 
114 118 
114 119 
114 782 
115 117 
115 119 
115 941 
116 118 
116 120 
116 942 
121 127 
121 128 
121 551 
122 129 
122 130 
122 552 
123 127 
123 130 
123 721 
124 128 
124 129 
124 722 
125 127 
125 129 
125 961 
126 128 
126 130 
126 962 
131 137 
131 138 
131 141 
132 139 
132 140 
132 142 
133 137 
133 140 
133 831 
134 138 
134 139 
134 832 
135 137 
135 139 
135 971 
136 138 
136 140 
136 972 
141 147 
141 148 
142 149 
142 150 
143 147 
143 150 
143 601 
144 148 
144 149 
144 602 
145 147 
145 149 
145 841 
146 148 
146 150 
146 842 
151 157 
151 158 
151 761 
152 159 
152 160 
152 762 
153 157 
153 160 
153 921 
154 158 
154 159 
154 922 
155 157 
155 159 
155 953 
156 158 
156 160 
156 954 
161 167 
161 168 
161 653 
162 169 
162 170 
162 654 
163 167 
163 170 
163 733 
164 168 
164 169 
164 734 
165 167 
165 169 
165 821 
166 168 
166 170 
166 822 
171 177 
171 178 
171 351 
172 179 
172 180 
172 352 
173 177 
173 180 
173 861 
174 178 
174 179 
174 862 
175 177 
175 179 
175 955 
176 178 
176 180 
176 956 
181 187 
181 188 
182 189 
182 190 
183 187 
183 190 
183 681 
184 188 
184 189 
184 682 
185 187 
185 189 
185 931 
186 188 
186 190 
186 932 
191 197 
191 198 
191 683 
192 199 
192 200 
192 684 
193 197 
193 200 
193 811 
194 198 
194 199 
194 812 
195 197 
195 199 
195 851 
196 198 
196 200 
196 852 
201 207 
201 208 
201 265 
202 209 
202 210 
202 266 
203 207 
203 210 
203 413 
204 208 
204 209 
204 414 
205 207 
205 209 
205 823 
206 208 
206 210 
206 824 
211 217 
211 218 
211 241 
212 219 
212 220 
212 242 
213 217 
213 220 
213 471 
214 218 
214 219 
214 472 
215 217 
215 219 
215 633 
216 218 
216 220 
216 634 
221 227 
221 228 
222 229 
222 230 
223 227 
223 230 
223 913 
224 228 
224 229 
224 914 
225 227 
225 229 
225 933 
226 228 
226 230 
226 934 
231 237 
231 238 
231 251 
232 239 
232 240 
232 252 
233 237 
233 240 
233 401 
234 238 
234 239 
234 402 
235 237 
235 239 
235 771 
236 238 
236 240 
236 772 
241 247 
241 248 
242 249 
242 250 
243 247 
243 250 
243 291 
244 248 
244 249 
244 292 
245 247 
245 249 
245 621 
246 248 
246 250 
246 622 
251 257 
251 258 
252 259 
252 260 
253 257 
253 260 
253 271 
254 258 
254 259 
254 272 
255 257 
255 259 
255 871 
256 258 
256 260 
256 872 
261 267 
261 268 
262 269 
262 270 
263 267 
263 270 
264 268 
264 269 
265 267 
265 269 
266 268 
266 270 
271 277 
271 278 
272 279 
272 280 
273 277 
273 280 
273 783 
274 278 
274 279 
274 784 
275 277 
275 279 
275 833 
276 278 
276 280 
276 834 
281 287 
281 288 
281 483 
282 289 
282 290 
282 484 
283 287 
283 290 
283 531 
284 288 
284 289 
284 532 
285 287 
285 289 
285 943 
286 288 
286 290 
286 944 
291 297 
291 298 
292 299 
292 300 
293 297 
293 300 
293 523 
294 298 
294 299 
294 524 
295 297 
295 299 
295 791 
296 298 
296 300 
296 792 
301 307 
301 308 
302 309 
302 310 
303 307 
303 310 
303 473 
304 308 
304 309 
304 474 
305 307 
305 309 
305 571 
306 308 
306 310 
306 572 
311 317 
311 318 
311 421 
312 319 
312 320 
312 422 
313 317 
313 320 
313 603 
314 318 
314 319 
314 604 
315 317 
315 319 
315 611 
316 318 
316 320 
316 612 
321 327 
321 328 
321 493 
322 329 
322 330 
322 494 
323 327 
323 330 
323 581 
324 328 
324 329 
324 582 
325 327 
325 329 
325 843 
326 328 
326 330 
326 844 
331 337 
331 338 
331 381 
332 339 
332 340 
332 382 
333 337 
333 340 
333 605 
334 338 
334 339 
334 606 
335 337 
335 339 
335 735 
336 338 
336 340 
336 736 
341 347 
341 348 
341 503 
342 349 
342 350 
342 504 
343 347 
343 350 
343 561 
344 348 
344 349 
344 562 
345 347 
345 349 
345 825 
346 348 
346 350 
346 826 
351 357 
351 358 
352 359 
352 360 
353 357 
353 360 
353 583 
354 358 
354 359 
354 584 
355 357 
355 359 
355 635 
356 358 
356 360 
356 636 
361 367 
361 368 
362 369 
362 370 
363 367 
363 370 
363 661 
364 368 
364 369 
364 662 
365 367 
365 369 
365 751 
366 368 
366 370 
366 752 
371 377 
371 378 
371 443 
372 379 
372 380 
372 444 
373 377 
373 380 
373 863 
374 378 
374 379 
374 864 
375 377 
375 379 
375 923 
376 378 
376 380 
376 924 
381 387 
381 388 
382 389 
382 390 
383 387 
383 390 
383 753 
384 388 
384 389 
384 754 
385 387 
385 389 
385 793 
386 388 
386 390 
386 794 
391 397 
391 398 
392 399 
392 400 
393 397 
393 400 
393 711 
394 398 
394 399 
394 712 
395 397 
395 399 
395 741 
396 398 
396 400 
396 742 
401 407 
401 408 
402 409 
402 410 
403 407 
403 410 
403 543 
404 408 
404 409 
404 544 
405 407 
405 409 
405 613 
406 408 
406 410 
406 614 
411 417 
411 418 
412 419 
412 420 
413 417 
413 420 
414 418 
414 419 
415 417 
415 419 
415 553 
416 418 
416 420 
416 554 
421 427 
421 428 
422 429 
422 430 
423 427 
423 430 
423 813 
424 428 
424 429 
424 814 
425 427 
425 429 
425 901 
426 428 
426 430 
426 902 
431 437 
431 438 
432 439 
432 440 
433 437 
433 440 
434 438 
434 439 
435 437 
435 439 
435 545 
436 438 
436 440 
436 546 
441 447 
441 448 
442 449 
442 450 
443 447 
443 450 
444 448 
444 449 
445 447 
445 449 
445 723 
446 448 
446 450 
446 724 
451 457 
451 458 
451 461 
452 459 
452 460 
452 462 
453 457 
453 460 
453 701 
454 458 
454 459 
454 702 
455 457 
455 459 
455 903 
456 458 
456 460 
456 904 
461 467 
461 468 
462 469 
462 470 
463 467 
463 470 
463 505 
464 468 
464 469 
464 506 
465 467 
465 469 
465 713 
466 468 
466 470 
466 714 
471 477 
471 478 
472 479 
472 480 
473 477 
473 480 
474 478 
474 479 
475 477 
475 479 
475 555 
476 478 
476 480 
476 556 
481 487 
481 488 
482 489 
482 490 
483 487 
483 490 
484 488 
484 489 
485 487 
485 489 
485 853 
486 488 
486 490 
486 854 
491 497 
491 498 
492 499 
492 500 
493 497 
493 500 
494 498 
494 499 
495 497 
495 499 
495 643 
496 498 
496 500 
496 644 
501 507 
501 508 
502 509 
502 510 
503 507 
503 510 
504 508 
504 509 
505 507 
505 509 
506 508 
506 510 
511 517 
511 518 
512 519 
512 520 
513 517 
513 520 
513 743 
514 518 
514 519 
514 744 
515 517 
515 519 
515 973 
516 518 
516 520 
516 974 
521 527 
521 528 
522 529 
522 530 
523 527 
523 530 
524 528 
524 529 
525 527 
525 529 
525 835 
526 528 
526 530 
526 836 
531 537 
531 538 
532 539 
532 540 
533 537 
533 540 
533 691 
534 538 
534 539 
534 692 
535 537 
535 539 
535 891 
536 538 
536 540 
536 892 
541 547 
541 548 
542 549 
542 550 
543 547 
543 550 
544 548 
544 549 
545 547 
545 549 
546 548 
546 550 
551 557 
551 558 
552 559 
552 560 
553 557 
553 560 
554 558 
554 559 
555 557 
555 559 
556 558 
556 560 
561 567 
561 568 
562 569 
562 570 
563 567 
563 570 
563 663 
564 568 
564 569 
564 664 
565 567 
565 569 
565 905 
566 568 
566 570 
566 906 
571 577 
571 578 
572 579 
572 580 
573 577 
573 580 
573 685 
574 578 
574 579 
574 686 
575 577 
575 579 
575 773 
576 578 
576 580 
576 774 
581 587 
581 588 
582 589 
582 590 
583 587 
583 590 
584 588 
584 589 
585 587 
585 589 
585 873 
586 588 
586 590 
586 874 
591 597 
591 598 
592 599 
592 600 
593 597 
593 600 
594 598 
594 599 
595 597 
595 599 
595 945 
596 598 
596 600 
596 946 
601 607 
601 608 
602 609 
602 610 
603 607 
603 610 
604 608 
604 609 
605 607 
605 609 
606 608 
606 610 
611 617 
611 618 
612 619 
612 620 
613 617 
613 620 
614 618 
614 619 
615 617 
615 619 
615 935 
616 618 
616 620 
616 936 
621 627 
621 628 
622 629 
622 630 
623 627 
623 630 
623 745 
624 628 
624 629 
624 746 
625 627 
625 629 
625 975 
626 628 
626 630 
626 976 
631 637 
631 638 
632 639 
632 640 
633 637 
633 640 
634 638 
634 639 
635 637 
635 639 
636 638 
636 640 
641 647 
641 648 
642 649 
642 650 
643 647 
643 650 
644 648 
644 649 
645 647 
645 649 
645 881 
646 648 
646 650 
646 882 
651 657 
651 658 
652 659 
652 660 
653 657 
653 660 
654 658 
654 659 
655 657 
655 659 
655 715 
656 658 
656 660 
656 716 
661 667 
661 668 
662 669 
662 670 
663 667 
663 670 
664 668 
664 669 
665 667 
665 669 
665 795 
666 668 
666 670 
666 796 
671 677 
671 678 
672 679 
672 680 
673 677 
673 680 
673 703 
674 678 
674 679 
674 704 
675 677 
675 679 
675 801 
676 678 
676 680 
676 802 
681 687 
681 688 
682 689 
682 690 
683 687 
683 690 
684 688 
684 689 
685 687 
685 689 
686 688 
686 690 
691 697 
691 698 
692 699 
692 700 
693 697 
693 700 
693 803 
694 698 
694 699 
694 804 
695 697 
695 699 
695 875 
696 698 
696 700 
696 876 
701 707 
701 708 
702 709 
702 710 
703 707 
703 710 
704 708 
704 709 
705 707 
705 709 
705 815 
706 708 
706 710 
706 816 
711 717 
711 718 
712 719 
712 720 
713 717 
713 720 
714 718 
714 719 
715 717 
715 719 
716 718 
716 720 
721 727 
721 728 
722 729 
722 730 
723 727 
723 730 
724 728 
724 729 
725 727 
725 729 
725 755 
726 728 
726 730 
726 756 
731 737 
731 738 
732 739 
732 740 
733 737 
733 740 
734 738 
734 739 
735 737 
735 739 
736 738 
736 740 
741 747 
741 748 
742 749 
742 750 
743 747 
743 750 
744 748 
744 749 
745 747 
745 749 
746 748 
746 750 
751 757 
751 758 
752 759 
752 760 
753 757 
753 760 
754 758 
754 759 
755 757 
755 759 
756 758 
756 760 
761 767 
761 768 
762 769 
762 770 
763 767 
763 770 
763 845 
764 768 
764 769 
764 846 
765 767 
765 769 
765 893 
766 768 
766 770 
766 894 
771 777 
771 778 
772 779 
772 780 
773 777 
773 780 
774 778 
774 779 
775 777 
775 779 
775 963 
776 778 
776 780 
776 964 
781 787 
781 788 
782 789 
782 790 
783 787 
783 790 
784 788 
784 789 
785 787 
785 789 
785 883 
786 788 
786 790 
786 884 
791 797 
791 798 
792 799 
792 800 
793 797 
793 800 
794 798 
794 799 
795 797 
795 799 
796 798 
796 800 
801 807 
801 808 
802 809 
802 810 
803 807 
803 810 
804 808 
804 809 
805 807 
805 809 
805 885 
806 808 
806 810 
806 886 
811 817 
811 818 
812 819 
812 820 
813 817 
813 820 
814 818 
814 819 
815 817 
815 819 
816 818 
816 820 
821 827 
821 828 
822 829 
822 830 
823 827 
823 830 
824 828 
824 829 
825 827 
825 829 
826 828 
826 830 
831 837 
831 838 
832 839 
832 840 
833 837 
833 840 
834 838 
834 839 
835 837 
835 839 
836 838 
836 840 
841 847 
841 848 
842 849 
842 850 
843 847 
843 850 
844 848 
844 849 
845 847 
845 849 
846 848 
846 850 
851 857 
851 858 
852 859 
852 860 
853 857 
853 860 
854 858 
854 859 
855 857 
855 859 
855 965 
856 858 
856 860 
856 966 
861 867 
861 868 
862 869 
862 870 
863 867 
863 870 
864 868 
864 869 
865 867 
865 869 
865 925 
866 868 
866 870 
866 926 
871 877 
871 878 
872 879 
872 880 
873 877 
873 880 
874 878 
874 879 
875 877 
875 879 
876 878 
876 880 
881 887 
881 888 
882 889 
882 890 
883 887 
883 890 
884 888 
884 889 
885 887 
885 889 
886 888 
886 890 
891 897 
891 898 
892 899 
892 900 
893 897 
893 900 
894 898 
894 899 
895 897 
895 899 
895 915 
896 898 
896 900 
896 916 
901 907 
901 908 
902 909 
902 910 
903 907 
903 910 
904 908 
904 909 
905 907 
905 909 
906 908 
906 910 
911 917 
911 918 
912 919 
912 920 
913 917 
913 920 
914 918 
914 919 
915 917 
915 919 
916 918 
916 920 
921 927 
921 928 
922 929 
922 930 
923 927 
923 930 
924 928 
924 929 
925 927 
925 929 
926 928 
926 930 
931 937 
931 938 
932 939 
932 940 
933 937 
933 940 
934 938 
934 939 
935 937 
935 939 
936 938 
936 940 
941 947 
941 948 
942 949 
942 950 
943 947 
943 950 
944 948 
944 949 
945 947 
945 949 
946 948 
946 950 
951 957 
951 958 
952 959 
952 960 
953 957 
953 960 
954 958 
954 959 
955 957 
955 959 
956 958 
956 960 
961 967 
961 968 
962 969 
962 970 
963 967 
963 970 
964 968 
964 969 
965 967 
965 969 
966 968 
966 970 
971 977 
971 978 
972 979 
972 980 
973 977 
973 980 
974 978 
974 979 
975 977 
975 979 
976 978 
976 980 
